p cnf 469 1342
r 0.5 1 2 3 4 5 6 7 8 9 10 11 12 13 14 15 0
e 16 17 18 19 20 21 22 23 24 25 26 27 28 29 30 31 32 33 34 35 36 37 38 39 40 41 42 43 44 45 46 47 48 49 50 51 52 53 54 55 56 57 58 59 60 61 62 63 64 65 66 67 68 69 70 71 72 73 74 75 76 77 78 79 80 81 82 83 84 85 86 87 88 89 90 91 92 93 94 95 96 97 98 99 100 101 102 103 104 105 106 107 108 109 110 111 112 113 114 115 116 117 118 119 120 121 122 123 124 125 126 127 128 129 130 131 132 133 134 135 136 137 138 139 140 141 142 143 144 145 146 147 148 149 150 151 152 153 154 155 156 157 158 159 160 161 162 163 164 165 166 167 168 169 170 171 172 173 174 175 176 177 178 179 180 181 182 183 184 185 186 187 188 189 190 191 192 193 194 195 196 197 198 199 200 201 202 203 204 205 206 207 208 209 210 211 212 213 214 215 216 217 218 219 220 221 222 223 224 225 226 227 228 229 230 231 232 233 234 235 236 237 238 239 240 241 242 243 244 245 246 247 248 249 250 251 252 253 254 255 256 257 258 259 260 261 262 263 264 265 266 267 268 269 270 271 272 273 274 275 276 277 278 279 280 281 282 283 284 285 286 287 288 289 290 291 292 293 294 295 296 297 298 299 300 301 302 303 304 305 306 307 308 309 310 311 312 313 314 315 316 317 318 319 320 321 322 323 324 325 326 327 328 329 330 331 332 333 334 335 336 337 338 339 340 341 342 343 344 345 346 347 348 349 350 351 352 353 354 355 356 357 358 359 360 361 362 363 364 365 366 367 368 369 370 371 372 373 374 375 376 377 378 379 380 381 382 383 384 385 386 387 388 389 390 391 392 393 394 395 396 397 398 399 400 401 402 403 404 405 406 407 408 409 410 411 412 413 414 415 416 417 418 419 420 421 422 423 424 425 426 427 428 429 430 431 432 433 434 435 436 437 438 439 440 441 442 443 444 445 446 447 448 449 450 451 452 453 454 455 456 457 458 459 460 461 462 463 464 465 466 467 468 469 0
-469 -16 1 0
-468 -17 2 0
-467 -18 3 0
-466 -19 4 0
-465 -20 5 0
-464 -21 6 0
-463 -22 7 0
-462 -23 8 0
-461 -24 9 0
-460 -25 10 0
-459 -26 11 0
-458 -27 12 0
-457 -28 13 0
-456 -29 14 0
-455 -30 15 0
-454 1 0
-454 -16 0
-453 16 0
-453 -1 0
-452 2 0
-452 -17 0
-451 17 0
-451 -2 0
-450 3 0
-450 -18 0
-449 18 0
-449 -3 0
-448 4 0
-448 -19 0
-447 19 0
-447 -4 0
-446 5 0
-446 -20 0
-445 20 0
-445 -5 0
-444 6 0
-444 -21 0
-443 21 0
-443 -6 0
-442 7 0
-442 -22 0
-441 22 0
-441 -7 0
-440 8 0
-440 -23 0
-439 23 0
-439 -8 0
-438 9 0
-438 -24 0
-437 24 0
-437 -9 0
-436 10 0
-436 -25 0
-435 25 0
-435 -10 0
-434 11 0
-434 -26 0
-433 26 0
-433 -11 0
-432 12 0
-432 -27 0
-431 27 0
-431 -12 0
-430 13 0
-430 -28 0
-429 28 0
-429 -13 0
-428 14 0
-428 -29 0
-427 29 0
-427 -14 0
-426 15 0
-426 -30 0
-425 30 0
-425 -15 0
-424 454 453 452 451 450 449 448 447 446 445 444 443 442 441 440 439 438 437 436 435 434 433 432 431 430 429 428 427 426 425 0
-423 12 0
-423 3 0
-423 13 0
-423 9 0
-423 -7 0
-422 2 0
-422 6 0
-422 11 0
-422 8 0
-422 -7 0
-421 9 0
-421 5 0
-421 12 0
-421 -7 0
-420 6 0
-420 1 0
-420 11 0
-420 8 0
-420 -7 0
-419 11 0
-419 15 0
-419 13 0
-419 4 0
-419 -7 0
-418 8 0
-418 13 0
-418 6 0
-418 1 0
-418 -7 0
-417 10 0
-417 11 0
-417 12 0
-417 2 0
-417 -7 0
-416 15 0
-416 10 0
-416 13 0
-416 12 0
-416 -7 0
-415 15 0
-415 13 0
-415 2 0
-415 -7 0
-414 12 0
-414 9 0
-414 14 0
-414 -7 0
-413 8 0
-413 4 0
-413 10 0
-413 9 0
-413 -3 0
-412 9 0
-412 14 0
-412 11 0
-412 10 0
-412 -3 0
-411 12 0
-411 11 0
-411 6 0
-411 2 0
-411 -3 0
-410 6 0
-410 2 0
-410 11 0
-410 5 0
-410 -3 0
-409 2 0
-409 6 0
-409 12 0
-409 1 0
-409 -3 0
-408 5 0
-408 1 0
-408 2 0
-408 -3 0
-407 14 0
-407 8 0
-407 4 0
-407 6 0
-407 -3 0
-406 13 0
-406 10 0
-406 8 0
-406 7 0
-406 -3 0
-405 12 0
-405 1 0
-405 14 0
-405 -3 0
-404 5 0
-404 4 0
-404 6 0
-404 7 0
-404 -3 0
-403 15 0
-403 6 0
-403 9 0
-403 -12 0
-402 5 0
-402 6 0
-402 14 0
-402 1 0
-402 -12 0
-401 3 0
-401 2 0
-401 1 0
-401 6 0
-401 -12 0
-400 13 0
-400 5 0
-400 4 0
-400 14 0
-400 -12 0
-399 13 0
-399 10 0
-399 7 0
-399 9 0
-399 -12 0
-398 11 0
-398 5 0
-398 2 0
-398 8 0
-398 -12 0
-397 14 0
-397 4 0
-397 8 0
-397 3 0
-397 -12 0
-396 10 0
-396 8 0
-396 4 0
-396 2 0
-396 -12 0
-395 1 0
-395 2 0
-395 5 0
-395 14 0
-395 -12 0
-394 1 0
-394 4 0
-394 -12 0
-393 12 0
-393 9 0
-393 6 0
-393 -15 0
-392 11 0
-392 14 0
-392 4 0
-392 -15 0
-391 5 0
-391 12 0
-391 4 0
-391 3 0
-391 -15 0
-390 3 0
-390 4 0
-390 5 0
-390 1 0
-390 -15 0
-389 12 0
-389 6 0
-389 9 0
-389 1 0
-389 -15 0
-388 1 0
-388 14 0
-388 4 0
-388 11 0
-388 -15 0
-387 14 0
-387 6 0
-387 1 0
-387 2 0
-387 -15 0
-386 10 0
-386 11 0
-386 8 0
-386 1 0
-386 -15 0
-385 13 0
-385 1 0
-385 10 0
-385 4 0
-385 -15 0
-384 11 0
-384 1 0
-384 14 0
-384 3 0
-384 -15 0
-383 8 0
-383 2 0
-383 12 0
-383 9 0
-383 -13 0
-382 6 0
-382 3 0
-382 1 0
-382 -13 0
-381 5 0
-381 15 0
-381 6 0
-381 9 0
-381 -13 0
-380 14 0
-380 4 0
-380 10 0
-380 11 0
-380 -13 0
-379 15 0
-379 14 0
-379 11 0
-379 2 0
-379 -13 0
-378 7 0
-378 8 0
-378 10 0
-378 -13 0
-377 5 0
-377 9 0
-377 11 0
-377 2 0
-377 -13 0
-376 1 0
-376 12 0
-376 -13 0
-375 5 0
-375 14 0
-375 3 0
-375 2 0
-375 -13 0
-374 15 0
-374 9 0
-374 10 0
-374 -13 0
-373 12 0
-373 14 0
-373 8 0
-373 -4 0
-372 2 0
-372 5 0
-372 14 0
-372 12 0
-372 -4 0
-371 5 0
-371 14 0
-371 3 0
-371 12 0
-371 -4 0
-370 11 0
-370 2 0
-370 15 0
-370 -4 0
-369 11 0
-369 6 0
-369 1 0
-369 14 0
-369 -4 0
-368 12 0
-368 9 0
-368 15 0
-368 11 0
-368 -4 0
-367 9 0
-367 14 0
-367 7 0
-367 11 0
-367 -4 0
-366 6 0
-366 1 0
-366 5 0
-366 11 0
-366 -4 0
-365 15 0
-365 7 0
-365 2 0
-365 8 0
-365 -4 0
-364 10 0
-364 7 0
-364 14 0
-364 -4 0
-363 10 0
-363 13 0
-363 14 0
-363 -8 0
-362 7 0
-362 6 0
-362 11 0
-362 1 0
-362 -8 0
-361 12 0
-361 1 0
-361 3 0
-361 -8 0
-360 5 0
-360 2 0
-360 14 0
-360 -8 0
-359 13 0
-359 14 0
-359 3 0
-359 15 0
-359 -8 0
-358 7 0
-358 2 0
-358 13 0
-358 14 0
-358 -8 0
-357 11 0
-357 6 0
-357 12 0
-357 14 0
-357 -8 0
-356 4 0
-356 1 0
-356 5 0
-356 7 0
-356 -8 0
-355 11 0
-355 14 0
-355 15 0
-355 -8 0
-354 12 0
-354 6 0
-354 13 0
-354 -8 0
-353 11 0
-353 1 0
-353 -5 0
-352 2 0
-352 3 0
-352 6 0
-352 1 0
-352 -5 0
-351 15 0
-351 2 0
-351 13 0
-351 -5 0
-350 6 0
-350 7 0
-350 13 0
-350 15 0
-350 -5 0
-349 10 0
-349 7 0
-349 2 0
-349 3 0
-349 -5 0
-348 3 0
-348 14 0
-348 12 0
-348 -5 0
-347 6 0
-347 3 0
-347 11 0
-347 -5 0
-346 15 0
-346 8 0
-346 4 0
-346 -5 0
-345 13 0
-345 8 0
-345 12 0
-345 14 0
-345 -5 0
-344 3 0
-344 15 0
-344 7 0
-344 1 0
-344 -5 0
-343 3 0
-343 14 0
-343 15 0
-343 -2 0
-342 12 0
-342 14 0
-342 3 0
-342 -2 0
-341 13 0
-341 14 0
-341 1 0
-341 3 0
-341 -2 0
-340 6 0
-340 12 0
-340 5 0
-340 -2 0
-339 15 0
-339 8 0
-339 12 0
-339 10 0
-339 -2 0
-338 15 0
-338 8 0
-338 12 0
-338 11 0
-338 -2 0
-337 3 0
-337 4 0
-337 15 0
-337 13 0
-337 -2 0
-336 4 0
-336 7 0
-336 1 0
-336 -2 0
-335 3 0
-335 7 0
-335 10 0
-335 14 0
-335 -2 0
-334 14 0
-334 1 0
-334 3 0
-334 5 0
-334 -2 0
-333 3 0
-333 12 0
-333 4 0
-333 14 0
-333 -11 0
-332 14 0
-332 4 0
-332 9 0
-332 -11 0
-331 3 0
-331 1 0
-331 8 0
-331 10 0
-331 -11 0
-330 9 0
-330 7 0
-330 12 0
-330 -11 0
-329 15 0
-329 8 0
-329 5 0
-329 14 0
-329 -11 0
-328 12 0
-328 5 0
-328 1 0
-328 4 0
-328 -11 0
-327 15 0
-327 7 0
-327 14 0
-327 5 0
-327 -11 0
-326 10 0
-326 4 0
-326 13 0
-326 6 0
-326 -11 0
-325 12 0
-325 3 0
-325 4 0
-325 14 0
-325 -11 0
-324 3 0
-324 8 0
-324 5 0
-324 12 0
-324 -11 0
-323 7 0
-323 6 0
-323 12 0
-323 -10 0
-322 2 0
-322 7 0
-322 15 0
-322 -10 0
-321 13 0
-321 4 0
-321 9 0
-321 3 0
-321 -10 0
-320 11 0
-320 3 0
-320 13 0
-320 8 0
-320 -10 0
-319 7 0
-319 5 0
-319 15 0
-319 14 0
-319 -10 0
-318 1 0
-318 4 0
-318 6 0
-318 12 0
-318 -10 0
-317 11 0
-317 9 0
-317 15 0
-317 -10 0
-316 6 0
-316 15 0
-316 14 0
-316 -10 0
-315 4 0
-315 1 0
-315 13 0
-315 6 0
-315 -10 0
-314 5 0
-314 13 0
-314 12 0
-314 -10 0
-313 10 0
-313 7 0
-313 13 0
-313 -14 0
-312 15 0
-312 12 0
-312 10 0
-312 -14 0
-311 8 0
-311 2 0
-311 13 0
-311 -14 0
-310 12 0
-310 4 0
-310 10 0
-310 15 0
-310 -14 0
-309 7 0
-309 2 0
-309 8 0
-309 10 0
-309 -14 0
-308 13 0
-308 9 0
-308 7 0
-308 -14 0
-307 11 0
-307 8 0
-307 6 0
-307 -14 0
-306 15 0
-306 2 0
-306 8 0
-306 6 0
-306 -14 0
-305 15 0
-305 11 0
-305 13 0
-305 3 0
-305 -14 0
-304 11 0
-304 2 0
-304 6 0
-304 4 0
-304 -14 0
-303 2 0
-303 5 0
-303 6 0
-303 12 0
-303 -1 0
-302 6 0
-302 2 0
-302 11 0
-302 -1 0
-301 7 0
-301 9 0
-301 15 0
-301 6 0
-301 -1 0
-300 10 0
-300 8 0
-300 3 0
-300 12 0
-300 -1 0
-299 14 0
-299 4 0
-299 13 0
-299 -1 0
-298 15 0
-298 10 0
-298 9 0
-298 13 0
-298 -1 0
-297 5 0
-297 3 0
-297 6 0
-297 7 0
-297 -1 0
-296 9 0
-296 3 0
-296 4 0
-296 -1 0
-295 2 0
-295 10 0
-295 9 0
-295 -1 0
-294 13 0
-294 5 0
-294 2 0
-294 14 0
-294 -1 0
-293 13 0
-293 11 0
-293 7 0
-293 12 0
-293 -6 0
-292 14 0
-292 11 0
-292 9 0
-292 -6 0
-291 9 0
-291 10 0
-291 12 0
-291 -6 0
-290 10 0
-290 11 0
-290 15 0
-290 14 0
-290 -6 0
-289 11 0
-289 8 0
-289 2 0
-289 -6 0
-288 12 0
-288 1 0
-288 3 0
-288 -6 0
-287 11 0
-287 9 0
-287 12 0
-287 10 0
-287 -6 0
-286 8 0
-286 13 0
-286 3 0
-286 10 0
-286 -6 0
-285 5 0
-285 8 0
-285 11 0
-285 -6 0
-284 2 0
-284 8 0
-284 15 0
-284 14 0
-284 -6 0
-283 12 0
-283 1 0
-283 5 0
-283 -9 0
-282 14 0
-282 4 0
-282 8 0
-282 6 0
-282 -9 0
-281 10 0
-281 15 0
-281 7 0
-281 2 0
-281 -9 0
-280 13 0
-280 8 0
-280 12 0
-280 6 0
-280 -9 0
-279 4 0
-279 8 0
-279 11 0
-279 15 0
-279 -9 0
-278 6 0
-278 5 0
-278 10 0
-278 2 0
-278 -9 0
-277 7 0
-277 2 0
-277 14 0
-277 15 0
-277 -9 0
-276 15 0
-276 3 0
-276 5 0
-276 10 0
-276 -9 0
-275 1 0
-275 4 0
-275 2 0
-275 12 0
-275 -9 0
-274 13 0
-274 1 0
-274 -9 0
-273 -13 0
-273 -3 0
-273 -10 0
-273 -5 0
-272 -7 0
-272 -6 0
-272 -4 0
-271 -8 0
-271 -5 0
-271 -7 0
-271 -1 0
-270 -5 0
-270 -15 0
-270 -4 0
-270 -9 0
-269 -14 0
-269 -2 0
-269 -15 0
-269 -9 0
-268 -3 0
-268 -12 0
-268 -4 0
-267 -5 0
-267 -10 0
-267 -1 0
-266 -8 0
-266 -13 0
-266 -3 0
-266 -15 0
-265 -4 0
-265 -14 0
-265 -10 0
-265 -6 0
-264 -1 0
-264 -2 0
-264 -10 0
-263 -5 0
-263 -14 0
-263 -9 0
-262 -9 0
-262 -13 0
-262 -12 0
-261 -6 0
-261 -11 0
-261 -12 0
-261 -9 0
-260 -14 0
-260 -13 0
-260 -1 0
-259 -8 0
-259 -13 0
-259 -2 0
-259 -4 0
-258 -3 0
-258 -11 0
-258 -2 0
-258 -6 0
-257 -1 0
-257 -10 0
-257 -15 0
-257 -11 0
-256 -10 0
-256 -9 0
-256 -4 0
-256 -12 0
-255 -12 0
-255 -13 0
-255 -11 0
-255 -2 0
-254 -11 0
-254 -7 0
-254 -10 0
-254 -9 0
-253 -3 0
-253 -13 0
-253 -4 0
-252 -7 0
-252 -12 0
-252 -5 0
-251 -9 0
-251 -7 0
-251 -13 0
-250 -3 0
-250 -1 0
-250 -4 0
-250 -9 0
-249 -5 0
-249 -11 0
-249 -7 0
-249 -12 0
-248 -7 0
-248 -1 0
-248 -14 0
-248 -11 0
-247 -12 0
-247 -1 0
-247 -15 0
-246 -13 0
-246 -1 0
-246 -12 0
-246 -4 0
-245 -11 0
-245 -5 0
-245 -10 0
-244 -12 0
-244 -2 0
-244 -3 0
-243 -15 0
-243 -1 0
-243 -2 0
-243 -13 0
-242 -11 0
-242 -6 0
-242 -10 0
-242 -2 0
-241 -9 0
-241 -14 0
-241 -12 0
-241 -8 0
-240 -2 0
-240 -9 0
-240 -7 0
-240 -10 0
-239 -15 0
-239 -12 0
-239 -6 0
-239 -2 0
-238 -5 0
-238 -6 0
-238 -2 0
-237 -5 0
-237 -7 0
-237 -12 0
-237 -11 0
-236 -10 0
-236 -15 0
-236 -4 0
-235 -7 0
-235 -15 0
-235 -11 0
-235 -12 0
-234 -2 0
-234 -1 0
-234 -12 0
-234 -7 0
-233 -2 0
-233 -4 0
-233 -6 0
-233 -3 0
-232 -14 0
-232 -9 0
-232 -13 0
-232 -8 0
-231 -2 0
-231 -11 0
-231 -9 0
-231 -5 0
-230 -11 0
-230 -4 0
-230 -7 0
-230 -3 0
-229 -1 0
-229 -10 0
-229 -5 0
-228 -27 -18 -28 -24 22 0
-227 -17 -21 -26 -23 22 0
-226 -24 -20 -27 22 0
-225 -21 -16 -26 -23 22 0
-224 -26 -30 -28 -19 22 0
-223 -23 -28 -21 -16 22 0
-222 -25 -26 -27 -17 22 0
-221 -30 -25 -28 -27 22 0
-220 -30 -28 -17 22 0
-219 -27 -24 -29 22 0
-218 -23 -19 -25 -24 18 0
-217 -24 -29 -26 -25 18 0
-216 -27 -26 -21 -17 18 0
-215 -21 -17 -26 -20 18 0
-214 -17 -21 -27 -16 18 0
-213 -20 -16 -17 18 0
-212 -29 -23 -19 -21 18 0
-211 -28 -25 -23 -22 18 0
-210 -27 -16 -29 18 0
-209 -20 -19 -21 -22 18 0
-208 -30 -21 -24 27 0
-207 -20 -21 -29 -16 27 0
-206 -18 -17 -16 -21 27 0
-205 -28 -20 -19 -29 27 0
-204 -28 -25 -22 -24 27 0
-203 -26 -20 -17 -23 27 0
-202 -29 -19 -23 -18 27 0
-201 -25 -23 -19 -17 27 0
-200 -16 -17 -20 -29 27 0
-199 -16 -19 27 0
-198 -27 -24 -21 30 0
-197 -26 -29 -19 30 0
-196 -20 -27 -19 -18 30 0
-195 -18 -19 -20 -16 30 0
-194 -27 -21 -24 -16 30 0
-193 -16 -29 -19 -26 30 0
-192 -29 -21 -16 -17 30 0
-191 -25 -26 -23 -16 30 0
-190 -28 -16 -25 -19 30 0
-189 -26 -16 -29 -18 30 0
-188 -23 -17 -27 -24 28 0
-187 -21 -18 -16 28 0
-186 -20 -30 -21 -24 28 0
-185 -29 -19 -25 -26 28 0
-184 -30 -29 -26 -17 28 0
-183 -22 -23 -25 28 0
-182 -20 -24 -26 -17 28 0
-181 -16 -27 28 0
-180 -20 -29 -18 -17 28 0
-179 -30 -24 -25 28 0
-178 -27 -29 -23 19 0
-177 -17 -20 -29 -27 19 0
-176 -20 -29 -18 -27 19 0
-175 -26 -17 -30 19 0
-174 -26 -21 -16 -29 19 0
-173 -27 -24 -30 -26 19 0
-172 -24 -29 -22 -26 19 0
-171 -21 -16 -20 -26 19 0
-170 -30 -22 -17 -23 19 0
-169 -25 -22 -29 19 0
-168 -25 -28 -29 23 0
-167 -22 -21 -26 -16 23 0
-166 -27 -16 -18 23 0
-165 -20 -17 -29 23 0
-164 -28 -29 -18 -30 23 0
-163 -22 -17 -28 -29 23 0
-162 -26 -21 -27 -29 23 0
-161 -19 -16 -20 -22 23 0
-160 -26 -29 -30 23 0
-159 -27 -21 -28 23 0
-158 -26 -16 20 0
-157 -17 -18 -21 -16 20 0
-156 -30 -17 -28 20 0
-155 -21 -22 -28 -30 20 0
-154 -25 -22 -17 -18 20 0
-153 -18 -29 -27 20 0
-152 -21 -18 -26 20 0
-151 -30 -23 -19 20 0
-150 -28 -23 -27 -29 20 0
-149 -18 -30 -22 -16 20 0
-148 -18 -29 -30 17 0
-147 -27 -29 -18 17 0
-146 -28 -29 -16 -18 17 0
-145 -21 -27 -20 17 0
-144 -30 -23 -27 -25 17 0
-143 -30 -23 -27 -26 17 0
-142 -18 -19 -30 -28 17 0
-141 -19 -22 -16 17 0
-140 -18 -22 -25 -29 17 0
-139 -29 -16 -18 -20 17 0
-138 -18 -27 -19 -29 26 0
-137 -29 -19 -24 26 0
-136 -18 -16 -23 -25 26 0
-135 -24 -22 -27 26 0
-134 -30 -23 -20 -29 26 0
-133 -27 -20 -16 -19 26 0
-132 -30 -22 -29 -20 26 0
-131 -25 -19 -28 -21 26 0
-130 -27 -18 -19 -29 26 0
-129 -18 -23 -20 -27 26 0
-128 -22 -21 -27 25 0
-127 -17 -22 -30 25 0
-126 -28 -19 -24 -18 25 0
-125 -26 -18 -28 -23 25 0
-124 -22 -20 -30 -29 25 0
-123 -16 -19 -21 -27 25 0
-122 -26 -24 -30 25 0
-121 -21 -30 -29 25 0
-120 -19 -16 -28 -21 25 0
-119 -20 -28 -27 25 0
-118 -25 -22 -28 29 0
-117 -30 -27 -25 29 0
-116 -23 -17 -28 29 0
-115 -27 -19 -25 -30 29 0
-114 -22 -17 -23 -25 29 0
-113 -28 -24 -22 29 0
-112 -26 -23 -21 29 0
-111 -30 -17 -23 -21 29 0
-110 -30 -26 -28 -18 29 0
-109 -26 -17 -21 -19 29 0
-108 -17 -20 -21 -27 16 0
-107 -21 -17 -26 16 0
-106 -22 -24 -30 -21 16 0
-105 -25 -23 -18 -27 16 0
-104 -29 -19 -28 16 0
-103 -30 -25 -24 -28 16 0
-102 -20 -18 -21 -22 16 0
-101 -24 -18 -19 16 0
-100 -17 -25 -24 16 0
-99 -28 -20 -17 -29 16 0
-98 -28 -26 -22 -27 21 0
-97 -29 -26 -24 21 0
-96 -24 -25 -27 21 0
-95 -25 -26 -30 -29 21 0
-94 -26 -23 -17 21 0
-93 -27 -16 -18 21 0
-92 -26 -24 -27 -25 21 0
-91 -23 -28 -18 -25 21 0
-90 -20 -23 -26 21 0
-89 -17 -23 -30 -29 21 0
-88 -27 -16 -20 24 0
-87 -29 -19 -23 -21 24 0
-86 -25 -30 -22 -17 24 0
-85 -28 -23 -27 -21 24 0
-84 -19 -23 -26 -30 24 0
-83 -21 -20 -25 -17 24 0
-82 -22 -17 -29 -30 24 0
-81 -30 -18 -20 -25 24 0
-80 -16 -19 -17 -27 24 0
-79 -28 -16 24 0
-78 28 18 25 20 0
-77 22 21 19 0
-76 23 20 22 16 0
-75 20 30 19 24 0
-74 29 17 30 24 0
-73 18 27 19 0
-72 20 25 16 0
-71 23 28 18 30 0
-70 19 29 25 21 0
-69 16 17 25 0
-68 20 29 24 0
-67 24 28 27 0
-66 21 26 27 24 0
-65 29 28 16 0
-64 23 28 17 19 0
-63 18 26 17 21 0
-62 16 25 30 26 0
-61 25 24 19 27 0
-60 27 28 26 17 0
-59 26 22 25 24 0
-58 18 28 19 0
-57 22 27 20 0
-56 24 22 28 0
-55 18 16 19 24 0
-54 20 26 22 27 0
-53 22 16 29 26 0
-52 27 16 30 0
-51 28 16 27 19 0
-50 26 20 25 0
-49 27 17 18 0
-48 30 16 17 28 0
-47 26 21 25 17 0
-46 24 29 27 23 0
-45 17 24 22 25 0
-44 30 27 21 17 0
-43 20 21 17 0
-42 20 22 27 26 0
-41 25 30 19 0
-40 22 30 26 27 0
-39 17 16 27 22 0
-38 17 19 21 18 0
-37 29 24 28 23 0
-36 17 26 24 20 0
-35 26 19 22 18 0
-34 16 25 20 0
-33 228 0
-33 227 0
-33 226 0
-33 225 0
-33 224 0
-33 223 0
-33 222 0
-33 221 0
-33 220 0
-33 219 0
-33 218 0
-33 217 0
-33 216 0
-33 215 0
-33 214 0
-33 213 0
-33 212 0
-33 211 0
-33 210 0
-33 209 0
-33 208 0
-33 207 0
-33 206 0
-33 205 0
-33 204 0
-33 203 0
-33 202 0
-33 201 0
-33 200 0
-33 199 0
-33 198 0
-33 197 0
-33 196 0
-33 195 0
-33 194 0
-33 193 0
-33 192 0
-33 191 0
-33 190 0
-33 189 0
-33 188 0
-33 187 0
-33 186 0
-33 185 0
-33 184 0
-33 183 0
-33 182 0
-33 181 0
-33 180 0
-33 179 0
-33 178 0
-33 177 0
-33 176 0
-33 175 0
-33 174 0
-33 173 0
-33 172 0
-33 171 0
-33 170 0
-33 169 0
-33 168 0
-33 167 0
-33 166 0
-33 165 0
-33 164 0
-33 163 0
-33 162 0
-33 161 0
-33 160 0
-33 159 0
-33 158 0
-33 157 0
-33 156 0
-33 155 0
-33 154 0
-33 153 0
-33 152 0
-33 151 0
-33 150 0
-33 149 0
-33 148 0
-33 147 0
-33 146 0
-33 145 0
-33 144 0
-33 143 0
-33 142 0
-33 141 0
-33 140 0
-33 139 0
-33 138 0
-33 137 0
-33 136 0
-33 135 0
-33 134 0
-33 133 0
-33 132 0
-33 131 0
-33 130 0
-33 129 0
-33 128 0
-33 127 0
-33 126 0
-33 125 0
-33 124 0
-33 123 0
-33 122 0
-33 121 0
-33 120 0
-33 119 0
-33 118 0
-33 117 0
-33 116 0
-33 115 0
-33 114 0
-33 113 0
-33 112 0
-33 111 0
-33 110 0
-33 109 0
-33 108 0
-33 107 0
-33 106 0
-33 105 0
-33 104 0
-33 103 0
-33 102 0
-33 101 0
-33 100 0
-33 99 0
-33 98 0
-33 97 0
-33 96 0
-33 95 0
-33 94 0
-33 93 0
-33 92 0
-33 91 0
-33 90 0
-33 89 0
-33 88 0
-33 87 0
-33 86 0
-33 85 0
-33 84 0
-33 83 0
-33 82 0
-33 81 0
-33 80 0
-33 79 0
-33 78 0
-33 77 0
-33 76 0
-33 75 0
-33 74 0
-33 73 0
-33 72 0
-33 71 0
-33 70 0
-33 69 0
-33 68 0
-33 67 0
-33 66 0
-33 65 0
-33 64 0
-33 63 0
-33 62 0
-33 61 0
-33 60 0
-33 59 0
-33 58 0
-33 57 0
-33 56 0
-33 55 0
-33 54 0
-33 53 0
-33 52 0
-33 51 0
-33 50 0
-33 49 0
-33 48 0
-33 47 0
-33 46 0
-33 45 0
-33 44 0
-33 43 0
-33 42 0
-33 41 0
-33 40 0
-33 39 0
-33 38 0
-33 37 0
-33 36 0
-33 35 0
-33 34 0
-32 423 422 421 420 419 418 417 416 415 414 413 412 411 410 409 408 407 406 405 404 403 402 401 400 399 398 397 396 395 394 393 392 391 390 389 388 387 386 385 384 383 382 381 380 379 378 377 376 375 374 373 372 371 370 369 368 367 366 365 364 363 362 361 360 359 358 357 356 355 354 353 352 351 350 349 348 347 346 345 344 343 342 341 340 339 338 337 336 335 334 333 332 331 330 329 328 327 326 325 324 323 322 321 320 319 318 317 316 315 314 313 312 311 310 309 308 307 306 305 304 303 302 301 300 299 298 297 296 295 294 293 292 291 290 289 288 287 286 285 284 283 282 281 280 279 278 277 276 275 274 273 272 271 270 269 268 267 266 265 264 263 262 261 260 259 258 257 256 255 254 253 252 251 250 249 248 247 246 245 244 243 242 241 240 239 238 237 236 235 234 233 232 231 230 229 33 0
-31 469 0
-31 468 0
-31 467 0
-31 466 0
-31 465 0
-31 464 0
-31 463 0
-31 462 0
-31 461 0
-31 460 0
-31 459 0
-31 458 0
-31 457 0
-31 456 0
-31 455 0
-31 424 0
-31 32 0
31 -7 -3 0

